7

0 6 3 4 5 6 2 
1 0 8 3 2 1 6
2 3 0 8 7 6 5
1 2 3 0 9 0 5
5 4 3 6 0 8 2
3 2 1 5 6 0 5
5 6 3 1 2 3 0

0 2 3 9 3 1 9
9 0 4 3 2 1 1
8 7 0 1 1 6 7
3 4 5 0 3 2 1
2 3 4 9 0 9 9
8 8 1 2 4 0 2
1 1 2 3 4 5 0